Minimize
  - 44 y_0 - 48 y_1 - 38 y_2 - 73 y_3 - 50 y_4 - 49 y_5 - 65 y_6 - 40 y_7
   - 23 y_8 - 41 y_9 - 15 y_10 - 44 y_11 - 25 y_12 - 35 y_13 - 42 y_14
   - 43 y_15 - 34 y_16 - 15 y_17 - 30 y_18 + 754 Constant
Subject To
 c_0: y_11 = 1
 c_1_0: y_0 >= 1
 c_1_1: y_1 + y_14 >= 1
 c_1_2: y_2 + y_7 >= 1
 c_1_3: y_3 >= 1
 c_1_4: y_4 >= 1
 c_1_5: y_5 >= 1
 c_1_6: y_6 >= 1
 c_1_7: y_2 + y_7 + y_15 >= 1
 c_1_8: y_8 + y_17 >= 1
 c_1_9: y_9 >= 1
 c_1_10: y_10 >= 1
 c_1_11: y_11 >= 1
 c_1_12: y_12 >= 1
 c_1_13: y_13 + y_18 >= 1
 c_1_14: y_1 + y_14 >= 1
 c_1_15: y_7 + y_15 >= 1
 c_1_16: y_16 >= 1
 c_1_17: y_8 + y_17 >= 1
 c_1_18: y_13 + y_18 >= 1
 c_1_19: y_19 >= 1
Bounds
 Constant = 1
Binaries
 y_0 y_1 y_2 y_3 y_4 y_5 y_6 y_7 y_8 y_9 y_10 y_11 y_12 y_13 y_14 y_15 y_16
 y_17 y_18 y_19
End
